# Solution for model GasLib-40
# Objective value = 2.2447115051537132e+01
loadshed[innode_1] 0
loadshed[innode_2] 0
loadshed[innode_3] 0
loadshed[innode_4] 0
loadshed[innode_5] 0
loadshed[innode_6] 0
loadshed[innode_7] 0
loadshed[innode_8] 0
loadshed[source_1] -2.7746144872826894e-01
loadshed[source_2] 1.1909241685136718e-01
loadshed[source_3] 0.300358250739986
loadshed[sink_1] 0
loadshed[sink_2] 0
loadshed[sink_3] 0
loadshed[sink_4] 0
loadshed[sink_5] 0
loadshed[sink_6] 0
loadshed[sink_7] 0
loadshed[sink_8] 0
loadshed[sink_9] 0
loadshed[sink_10] 0
loadshed[sink_11] 0
loadshed[sink_12] 1
loadshed[sink_13] 0
loadshed[sink_14] 0
loadshed[sink_15] 0
loadshed[sink_16] 0
loadshed[sink_17] 0
loadshed[sink_18] 0
loadshed[sink_19] 0
loadshed[sink_20] 0
loadshed[sink_21] 3.7256244901118768e-01
loadshed[sink_22] 0
loadshed[sink_23] 0
loadshed[sink_24] 0
loadshed[sink_25] 0
loadshed[sink_26] 0
loadshed[sink_27] 0
loadshed[sink_28] 0
loadshed[sink_29] 0
flow[source_1,sink_3] 2.0195423527985446e+02
flow[innode_1,sink_16] 1.6354166666666970e+01
flow[innode_6,sink_13] 3.8726081812213264e+00
flow[sink_13,sink_14] -1.2481558485445341e+01
flow[sink_14,sink_10] -2.8835725152111991e+01
flow[sink_25,sink_26] 1.5326562087211101e+02
flow[sink_26,sink_9] 8.1770833333333655e+01
flow[sink_9,sink_18] 6.5416666666666671e+01
flow[sink_26,sink_4] 5.5140620872110716e+01
flow[sink_4,sink_20] -1.6530549488958830e+01
flow[sink_18,sink_6] 4.9062500000000313e+01
flow[sink_25,innode_8] -1.6924590194651807e+02
flow[sink_6,sink_7] 0
flow[sink_6,sink_22] 3.2708333333333641e+01
flow[sink_7,sink_24] 2.6615384948462872e+01
flow[sink_22,sink_1] 1.6354166666666970e+01
flow[sink_24,sink_21] 1.0261218281796202e+01
flow[sink_21,sink_12] 0
flow[sink_7,sink_5] -4.2969551615129539e+01
flow[sink_5,sink_17] -5.9323718281796204e+01
flow[sink_17,sink_4] -5.5317003694402871e+01
flow[sink_17,sink_8] -2.0360881254060008e+01
flow[sink_3,sink_23] 16.3541666666697
flow[sink_8,sink_20] -3.6715047920726676e+01
flow[sink_25,sink_20] 6.9599764076352329e+01
flow[sink_25,sink_15] -7.3846257849833208e+01
flow[sink_15,sink_29] -1.0655459118318413e+02
flow[sink_29,sink_28] 1.6354166666667879e+01
flow[sink_29,sink_2] 0
flow[sink_2,sink_15] -1.6354166666684250e+01
flow[sink_29,innode_7] -1.3926292451651824e+02
flow[innode_4,sink_19] 4.2519241403201811e+01
flow[sink_19,innode_3] 0
flow[innode_4,innode_5] 6.8087317082244141e+01
flow[sink_27,innode_5] -6.8087317082244141e+01
flow[sink_27,sink_19] 5.1733150415577477e+01
flow[sink_10,sink_11] 3.2708333333333641e+01
flow[sink_10,innode_2] -7.7898225152112445e+01
flow[sink_10,innode_3] 0
flow[innode_6,sink_25] -3.8726081812213264e+00
flow[sink_11,innode_1] 1.6354166666666970e+01
flow[sink_19,innode_2] 7.7898225152112445e+01
flow[source_3,innode_4] 1.1060655848544596e+02
flow[source_2,innode_7] 1.3926292451651824e+02
flow[sink_3,innode_8] 1.6924590194651807e+02
pressure[innode_1] 75.0217429540121
pressure[innode_2] 7.9290687191111715e+01
pressure[innode_3] 7.9290687191111715e+01
pressure[innode_4] 81.01325
pressure[innode_5] 8.0966415953055488e+01
pressure[innode_6] 7.3808567181115578e+01
pressure[innode_7] 81.01325
pressure[innode_8] 8.0338194140773680e+01
pressure[source_1] 81.01325
pressure[source_2] 81.01325
pressure[source_3] 81.01325
pressure[sink_1] 5.2341801677443470e+01
pressure[sink_2] 7.4113400739326877e+01
pressure[sink_3] 8.0338194140773680e+01
pressure[sink_4] 5.6003438263022694e+01
pressure[sink_5] 4.9470216576162123e+01
pressure[sink_6] 5.4442879287830841e+01
pressure[sink_7] 3.1599516081819718e+01
pressure[sink_8] 5.4657673729988439e+01
pressure[sink_9] 5.8119964091289127e+01
pressure[sink_10] 7.5173444261615643e+01
pressure[sink_11] 75.0217429540121
pressure[sink_12] 1.01325
pressure[sink_13] 7.3787218139385459e+01
pressure[sink_14] 7.3809554951488863e+01
pressure[sink_15] 7.4166793489093322e+01
pressure[sink_16] 7.4000093119194418e+01
pressure[sink_17] 5.3889404784003993e+01
pressure[sink_18] 5.5752994116090470e+01
pressure[sink_19] 7.9290687191111715e+01
pressure[sink_20] 5.7216196236392868e+01
pressure[sink_21] 1.01325
pressure[sink_22] 5.3405570819798477e+01
pressure[sink_23] 80.1734761291139
pressure[sink_24] 1.1268834586620848e+00
pressure[sink_25] 7.3808567181115578e+01
pressure[sink_26] 6.3014159511000479e+01
pressure[sink_27] 8.0401417033107023e+01
pressure[sink_28] 7.6993230057445956e+01
pressure[sink_29] 7.7288512331063131e+01
interdiction[source_1,sink_3] 0
interdiction[innode_1,sink_16] 0
interdiction[innode_6,sink_13] 0
interdiction[sink_13,sink_14] 0
interdiction[sink_14,sink_10] 0
interdiction[sink_25,sink_26] 0
interdiction[sink_26,sink_9] 0
interdiction[sink_9,sink_18] 0
interdiction[sink_26,sink_4] 0
interdiction[sink_4,sink_20] 0
interdiction[sink_18,sink_6] 0
interdiction[sink_25,innode_8] 0
interdiction[sink_6,sink_7] 1
interdiction[sink_6,sink_22] 0
interdiction[sink_7,sink_24] 0
interdiction[sink_22,sink_1] 0
interdiction[sink_24,sink_21] 0
interdiction[sink_21,sink_12] 0
interdiction[sink_7,sink_5] 0
interdiction[sink_5,sink_17] 0
interdiction[sink_17,sink_4] 0
interdiction[sink_17,sink_8] 0
interdiction[sink_3,sink_23] 0
interdiction[sink_8,sink_20] 0
interdiction[sink_25,sink_20] 0
interdiction[sink_25,sink_15] 0
interdiction[sink_15,sink_29] 0
interdiction[sink_29,sink_28] 0
interdiction[sink_29,sink_2] 1
interdiction[sink_2,sink_15] 0
interdiction[sink_29,innode_7] 0
interdiction[innode_4,sink_19] 0
interdiction[sink_19,innode_3] 0
interdiction[innode_4,innode_5] 0
interdiction[sink_27,innode_5] 0
interdiction[sink_27,sink_19] 0
interdiction[sink_10,sink_11] 0
interdiction[sink_10,innode_2] 0
interdiction[sink_10,innode_3] 1
interdiction[innode_6,sink_25] 0
interdiction[sink_11,innode_1] 0
interdiction[sink_19,innode_2] 0
interdiction[source_3,innode_4] 0
interdiction[source_2,innode_7] 0
interdiction[sink_3,innode_8] 0
WCcheckFlow[source_1,sink_3] 39
WCcheckFlow[innode_1,sink_16] 1
WCcheckFlow[innode_6,sink_13] 13
WCcheckFlow[sink_13,sink_14] 12
WCcheckFlow[sink_14,sink_10] 11
WCcheckFlow[sink_25,sink_26] 15
WCcheckFlow[sink_26,sink_9] 5
WCcheckFlow[sink_9,sink_18] 4
WCcheckFlow[sink_26,sink_4] 9
WCcheckFlow[sink_4,sink_20] 1
WCcheckFlow[sink_18,sink_6] 3
WCcheckFlow[sink_25,innode_8] -36
WCcheckFlow[sink_6,sink_7] 0
WCcheckFlow[sink_6,sink_22] 2
WCcheckFlow[sink_7,sink_24] 3
WCcheckFlow[sink_22,sink_1] 1
WCcheckFlow[sink_24,sink_21] 2
WCcheckFlow[sink_21,sink_12] 1
WCcheckFlow[sink_7,sink_5] -4
WCcheckFlow[sink_5,sink_17] -5
WCcheckFlow[sink_17,sink_4] -7
WCcheckFlow[sink_17,sink_8] 1
WCcheckFlow[sink_3,sink_23] 1
WCcheckFlow[sink_8,sink_20] 0
WCcheckFlow[sink_25,sink_20] 0
WCcheckFlow[sink_25,sink_15] 6
WCcheckFlow[sink_15,sink_29] 4
WCcheckFlow[sink_29,sink_28] 1
WCcheckFlow[sink_29,sink_2] 0
WCcheckFlow[sink_2,sink_15] -1
WCcheckFlow[sink_29,innode_7] 2
WCcheckFlow[innode_4,sink_19] -4
WCcheckFlow[sink_19,innode_3] 1
WCcheckFlow[innode_4,innode_5] 2
WCcheckFlow[sink_27,innode_5] -1
WCcheckFlow[sink_27,sink_19] 0
WCcheckFlow[sink_10,sink_11] 3
WCcheckFlow[sink_10,innode_2] 7
WCcheckFlow[sink_10,innode_3] 0
WCcheckFlow[innode_6,sink_25] -14
WCcheckFlow[sink_11,innode_1] 2
WCcheckFlow[sink_19,innode_2] -6
WCcheckFlow[source_3,innode_4] -1
WCcheckFlow[source_2,innode_7] -1
WCcheckFlow[sink_3,innode_8] 37
